SCIP version 5.0.0 [precision: 8 byte] [memory: block] [mode: optimized] [LP solver: NONE] [GitHash: 3bbd232]
Copyright (C) 2002-2017 Konrad-Zuse-Zentrum fuer Informationstechnik Berlin (ZIB)

External codes: 
  Readline EditLine w  GNU library for command line editing (gnu.org/s/readline)
  CppAD 20160000.1     Algorithmic Differentiation of C++ algorithms developed by B. Bell (www.coin-or.org/CppAD)
  ZLIB 1.2.5           General purpose compression library by J. Gailly and M. Adler (zlib.net)
  GMP 6.1.2            GNU Multiple Precision Arithmetic Library developed by T. Granlund (gmplib.org)

user parameter file <scip.set> not found - using default parameters

read problem <../../Split_data/output/seismic-bumps/7/1_sample_seismic-bumps.logreg>
============

File name	:	../../Split_data/output/seismic-bumps/7/1_sample_seismic-bumps.logreg
Problem name 	:	1_sample_seismic-bumps
Number of data	:	2067
Number of var	:	21
The given data has linear dependence
4 sets of column vector are linearly dependent:
{ 2 3}, { 4 5 6}, { 7 8}, { 13 14 15}, 

[dim=1] time: 0.035937
[dim=2] time: 0.074301
[dim=3] time: 0.108988
[dim=4] time: 0.148401
[dim=5] time: 0.176254
[dim=6] time: 0.203496
[dim=7] time: 0.227018
[dim=8] time: 0.252152
[dim=9] time: 0.276015
[dim=10] Time of forward = 0.289792sec.
AIC: 916.891
k: 9

[dim=17] time: 0.081584
[dim=16] time: 0.114964
[dim=15] time: 0.149272
[dim=14] time: 0.173318
[dim=13] time: 0.199832
[dim=12] Time of backward = 0.214645sec.
AIC: 919.632
k: 13
